CMD:
./solvers/bin/cadical --plain --no-reduce -t 1600 ./data/cnfs//viselevatorp3/viselevatorp3.90.cnf

c --- [ banner ] -------------------------------------------------------------
c 
c CaDiCaL SAT Solver
c Copyright (c) 2016-2024
c A. Biere, M. Fleury, N. Froleyks, K. Fazekas, F. Pollitt, T. Faller
c JKU Linz, University of Freiburg, TU Wien
c 
c Version 2.1.3 5296d3d2a9bf48c154ab2acb5e44625776d821bf
c g++ (Gentoo 12.3.1_p20230526 p2) 12.3.1 20230526 -Wall -Wextra -O3 -DNDEBUG
c Sat Aug 9 07:26:21 PDT 2025 Linux cedar2.int.cedar.computecanada.ca 5.14.0-362.24.2.el9_3.x86_64 x86_64
c 
c --- [ limit ] --------------------------------------------------------------
c 
c setting time limit to 1600 seconds real time (due to '-t 1600')
c 
c --- [ parsing input ] ------------------------------------------------------
c 
c reading DIMACS file from './data/cnfs//viselevatorp3/viselevatorp3.90.cnf'
c opening file to read './data/cnfs//viselevatorp3/viselevatorp3.90.cnf'
c found 'p cnf 104597 305800' header
c parsed 305800 clauses in 0.05 seconds process time
c 
c --- [ options ] ------------------------------------------------------------
c 
c   --compact=false                (different from default 'true')
c   --decompose=false              (different from default 'true')
c   --deduplicate=false            (different from default 'true')
c   --elim=false                   (different from default 'true')
c   --probe=false                  (different from default 'true')
c   --reduce=false                 (different from default 'true')
c   --subsume=false                (different from default 'true')
c   --ternary=false                (different from default 'true')
c   --transred=false               (different from default 'true')
c   --vivify=false                 (different from default 'true')
c 
c --- [ solving ] ------------------------------------------------------------
c 
c time measured in process time since initialization
c 
c  seconds  reductions  redundant  irredundant
c         MB    restarts       trail       variables
c          level   conflicts       glue         remaining
c 
c *  0.05 51  0 0   0    0    0  0% 0 300858 99391 95%
c {  0.05 51  0 0   0    0    0  0% 0 300858 99391 95%
c i  0.06 51 66 0  10  323  283  8% 2 300858 99375 95%
c }  0.12 52 202 0  11 1001  929 17% 2 300858 99375 95%
c [  0.12 52  0 0  11 1001  929  0% 0 300858 99375 95%
c O  0.12 52 42 0  11 1002  930  8% 2 300858 99375 95%
c i  0.15 52 797 0  11 1182 1109 55% 3 300858 99268 95%
c i  0.15 52 813 0  11 1187 1112 56% 3 300858 99209 95%
c i  0.15 52 818 0  11 1189 1113 57% 3 300858 99175 95%
c i  0.15 52 834 0  11 1195 1118 58% 3 300858 99147 95%
c i  0.15 52 844 0  11 1199 1121 58% 3 300858 99054 95%
c i  0.15 52 853 0  11 1203 1124 59% 3 300858 99023 95%
c i  0.15 52 891 0  11 1227 1143 62% 3 300858 99020 95%
c i  0.15 52 892 0  11 1228 1143 62% 3 300858 99005 95%
c i  0.15 52 898 0  11 1235 1145 62% 3 300858 98976 95%
c i  0.15 52 903 0  11 1239 1148 62% 3 300858 98946 95%
c i  0.15 52 907 0  11 1243 1150 63% 2 300858 98914 95%
c i  0.15 52 910 0  11 1247 1153 63% 2 300858 98883 95%
c i  0.15 52 913 0  11 1251 1155 63% 2 300858 98852 95%
c i  0.15 52 922 0  11 1265 1165 64% 2 300858 98808 94%
c 
c  seconds   reductions  redundant  irredundant
c         MB     restarts       trail       variables
c           level   conflicts       glue         remaining
c 
c i  0.15 52 928 0  11 1284 1182 64% 2 300858 98791 94%
c i  0.15 52 928 0  11 1370 1255 64% 2 300858 98790 94%
c i  0.16 52 923 0  11 1410 1287 64% 2 300858 98787 94%
c i  0.16 52 922 0  11 1415 1290 64% 2 300858 98744 94%
c i  0.16 52 921 0  11 1418 1292 64% 2 300858 98681 94%
c i  0.16 52 921 0  11 1421 1294 64% 2 300858 98651 94%
c i  0.16 52 920 0  11 1425 1297 64% 2 300858 98637 94%
c i  0.16 52 916 0  11 1440 1308 64% 2 300858 98636 94%
c i  0.16 52 914 0  11 1448 1315 64% 2 300858 98606 94%
c i  0.16 52 910 0  11 1461 1326 63% 2 300858 98592 94%
c i  0.16 52 907 0  11 1473 1336 63% 2 300858 98561 94%
c i  0.16 52 906 0  11 1476 1338 63% 2 300858 98528 94%
c i  0.16 52 903 0  11 1482 1343 63% 2 300858 98514 94%
c i  0.16 52 900 0  11 1492 1348 63% 2 300858 98483 94%
c i  0.16 52 886 0  11 1527 1377 62% 2 300858 98469 94%
c i  0.16 52 874 0  11 1555 1397 61% 2 300858 98422 94%
c i  0.16 52 868 0  11 1568 1408 61% 2 300858 98376 94%
c i  0.16 52 866 0  11 1574 1413 61% 2 300858 98346 94%
c i  0.16 52 862 0  11 1582 1420 60% 2 300858 98345 94%
c i  0.16 52 858 0  11 1592 1426 60% 2 300858 98315 94%
c 
c  seconds   reductions  redundant  irredundant
c         MB     restarts       trail       variables
c           level   conflicts       glue         remaining
c 
c i  0.16 52 848 0  11 1614 1441 59% 2 300858 98301 94%
c i  0.16 52 844 0  11 1621 1447 59% 2 300858 98300 94%
c i  0.17 53 722 0  11 1851 1644 52% 2 300858 98223 94%
c i  0.17 53 721 0  11 1854 1646 52% 2 300858 98037 94%
c i  0.17 53 719 0  11 1857 1648 52% 2 300858 98036 94%
c i  0.17 53 719 0  11 1858 1648 52% 2 300858 98005 94%
c i  0.17 53 714 0  11 1867 1655 51% 2 300858 97990 94%
c i  0.17 53 711 0  11 1875 1658 51% 2 300858 97989 94%
c i  0.17 53 705 0  11 1890 1667 51% 2 300858 97944 94%
c i  0.17 53 700 0  11 1901 1676 50% 2 300858 97929 94%
c i  0.17 53 698 0  11 1904 1677 50% 2 300858 97897 94%
c i  0.17 53 676 0  11 1944 1709 49% 2 300858 97884 94%
c i  0.17 53 665 0  11 1963 1726 48% 2 300858 97867 94%
c i  0.18 53 595 0  11 2089 1835 44% 2 300858 97728 93%
c i  0.18 53 593 0  11 2093 1837 44% 2 300858 97638 93%
c i  0.18 53 592 0  11 2094 1837 44% 2 300858 97592 93%
c i  0.18 53 591 0  12 2095 1837 44% 2 300858 97542 93%
c ]  0.18 53 590 0  12 2098 1838 44% 2 300858 97471 93%
c 0  0.18 53 590 0  12 2098 1838 44% 2 300858 97471 93%
c 
c --- [ result ] -------------------------------------------------------------
c 
s UNSATISFIABLE
c 
c --- [ run-time profiling ] -------------------------------------------------
c 
c process time taken by individual solving procedures
c (percentage relative to process time for solving)
c 
c         0.13   99.92% search
c         0.07   53.26% unstable
c         0.06   45.75% stable
c         0.05   34.75% parse
c         0.00    0.89% lucky
c         0.00    0.00% simplify
c   =================================
c         0.13   74.03% solve
c 
c last line shows process time for solving
c (percentage relative to total process time)
c 
c --- [ statistics ] ---------------------------------------------------------
c 
c chronological:              1193        56.86 %  of conflicts
c conflicts:                  2098     16054.36    per second
c decisions:                 18102    138520.52    per second
c fixed:                      7126         6.81 %  of all variables
c learned:                    1982        94.47 %  per conflict
c learned_lits:              11321       100.00 %  learned literals
c minimized:                     0         0.00 %  learned literals
c shrunken:                   1313        11.60 %  learned literals
c minishrunken:                946         8.36 %  learned literals
c otfs:                         57         2.72 %  of conflict
c propagations:            1320947        10.11 M  per second
c rephased:                      1      2098.00    interval
c restarts:                     12       174.83    interval
c stabilizing:                   1        52.29 %  of conflicts
c subsumed:                     91         0.03 %  of all clauses
c strengthened:                 56         0.02 %  of all clauses
c 
c seconds are measured in process time for solving
c 
c --- [ resources ] ----------------------------------------------------------
c 
c total process time since initialization:         0.18    seconds
c total real time since initialization:            0.18    seconds
c maximum resident set size of process:           50.66    MB
c 
c --- [ shutting down ] ------------------------------------------------------
c 
c exit 20
